set I :=
Adolfo
Alessandro
Andrea
Antonio
Arturo
Augusto
Bartolomeo
Benedetto
Bruno
Carlo
;

set K :=
A
B
;

set T :=
Lunedi
Martedi
Mercoledi
;

set J :=
Ortopedia
Dermatologia
;

param p :=
Adolfo 50
Alessandro 80
Andrea 95
Antonio 60
Arturo 70

Augusto 60
Bartolomeo 35
Benedetto 85
Bruno 30
Carlo 25
;

param s :=
(A, Lunedi) 480
(A, Martedi) 480
(A, Mercoledi) 480
(B, Lunedi) 480
(B, Martedi) 480
(B, Mercoledi) 480
;

param q :=
(Adolfo, Ortopedia) 1
(Alessandro, Ortopedia) 1
(Andrea, Ortopedia) 1
(Antonio, Ortopedia) 1
(Arturo, Ortopedia) 1
(Augusto, Ortopedia) 0
(Bartolomeo, Ortopedia) 0
(Benedetto, Ortopedia) 0
(Bruno, Ortopedia) 0
(Carlo, Ortopedia) 0
(Adolfo, Dermatologia) 0
(Alessandro, Dermatologia) 0
(Andrea, Dermatologia) 0
(Antonio, Dermatologia) 0
(Arturo, Dermatologia) 0
(Augusto, Dermatologia) 1
(Bartolomeo, Dermatologia) 1
(Benedetto, Dermatologia) 1
(Bruno, Dermatologia) 1
(Carlo, Dermatologia) 1
;

param tau :=
(A, Lunedi, Ortopedia) 1
(A, Lunedi, Dermatologia) 0
(A, Martedi, Ortopedia) 1
(A, Martedi, Dermatologia) 0
(A, Mercoledi, Ortopedia) 1
(A, Mercoledi, Dermatologia) 0
(B, Lunedi, Ortopedia) 0
(B, Lunedi, Dermatologia) 1
(B, Martedi, Ortopedia) 0
(B, Martedi, Dermatologia) 1
(B, Mercoledi, Ortopedia) 0
(B, Mercoledi, Dermatologia) 1
;